PROBLEM NAME: eil51_n8
KNAPSACK DATA TYPE: uncorrelated, similar weights
DIMENSION: 8
NUMBER OF ITEMS: 7
CAPACITY OF KNAPSACK: 382045
MIN SPEED: 0.1
MAX SPEED: 1
RENTING RATIO: 4.66
EDGE_WEIGHT_TYPE: CEIL_2D
NODE_COORD_SECTION	(INDEX, X, Y):
1	52	64
2	57	58
3	16	57
4	27	68
5	58	48
6	10	17
7	39	10
8	48	28
ITEMS SECTION	(INDEX, PROFIT, WEIGHT, ASSIGNED NODE NUMBER):
1	936	100010	4
2	586	100072	3
3	539	100027	6
4	486	100051	7
5	354	100087	8
6	337	100081	5
7	280	100089	2
